x low 4.00
p edge 706 2071
n 0 1.00
n 13 1.00
n 17 1.00
n 12 1.00
n 723 1.00
n 714 1.00
n 2 1.00
n 1 1.00
n 721 1.00
n 10 1.00
n 703 1.00
n 712 1.00
n 3 1.00
n 711 1.00
n 4 1.00
n 713 1.00
n 701 1.00
n 710 1.00
n 8 1.00
n 709 1.00
n 704 1.00
n 5 1.00
n 718 1.00
n 719 1.00
n 14 1.00
n 717 1.00
n 85 1.00
n 6 1.00
n 715 1.00
n 716 1.00
n 7 1.00
n 700 1.00
n 708 1.00
n 705 1.00
n 706 1.00
n 707 1.00
n 9 1.00
n 694 1.00
n 97 1.00
n 19 1.00
n 15 1.00
n 693 1.00
n 720 1.00
n 722 1.00
n 25 1.00
n 699 1.00
n 16 1.00
n 84 1.00
n 18 1.00
n 99 1.00
n 100 1.00
n 82 1.00
n 40 1.00
n 98 1.00
n 86 1.00
n 20 1.00
n 24 1.00
n 696 1.00
n 23 1.00
n 692 1.00
n 21 1.00
n 92 1.00
n 688 1.00
n 691 1.00
n 46 1.00
n 690 1.00
n 95 1.00
n 22 1.00
n 94 1.00
n 27 1.00
n 689 1.00
n 28 1.00
n 44 1.00
n 687 1.00
n 26 1.00
n 90 1.00
n 91 1.00
n 45 1.00
n 43 1.00
n 38 1.00
n 29 1.00
n 37 1.00
n 30 1.00
n 686 1.00
n 33 1.00
n 81 1.00
n 31 1.00
n 47 1.00
n 80 1.00
n 42 1.00
n 683 1.00
n 36 1.00
n 32 1.00
n 671 1.00
n 35 1.00
n 685 1.00
n 34 1.00
n 675 1.00
n 64 1.00
n 106 1.00
n 77 1.00
n 665 1.00
n 678 1.00
n 666 1.00
n 676 1.00
n 78 1.00
n 39 1.00
n 41 1.00
n 684 1.00
n 48 1.00
n 79 1.00
n 65 1.00
n 107 1.00
n 50 1.00
n 108 1.00
n 58 1.00
n 51 1.00
n 111 1.00
n 59 1.00
n 104 1.00
n 60 1.00
n 112 1.00
n 57 1.00
n 75 1.00
n 56 1.00
n 52 1.00
n 73 1.00
n 54 1.00
n 53 1.00
n 72 1.00
n 71 1.00
n 105 1.00
n 648 1.00
n 76 1.00
n 55 1.00
n 118 1.00
n 61 1.00
n 116 1.00
n 651 1.00
n 646 1.00
n 652 1.00
n 62 1.00
n 115 1.00
n 63 1.00
n 83 1.00
n 110 1.00
n 114 1.00
n 66 1.00
n 87 1.00
n 101 1.00
n 67 1.00
n 102 1.00
n 68 1.00
n 89 1.00
n 113 1.00
n 109 1.00
n 103 1.00
n 70 1.00
n 74 1.00
n 669 1.00
n 680 1.00
n 682 1.00
n 670 1.00
n 681 1.00
n 679 1.00
n 88 1.00
n 96 1.00
n 93 1.00
n 695 1.00
n 698 1.00
n 117 1.00
n 645 1.00
n 644 1.00
n 122 1.00
n 650 1.00
n 168 1.00
n 119 1.00
n 120 1.00
n 638 1.00
n 640 1.00
n 149 1.00
n 150 1.00
n 170 1.00
n 148 1.00
n 167 1.00
n 123 1.00
n 166 1.00
n 124 1.00
n 169 1.00
n 125 1.00
n 171 1.00
n 602 1.00
n 126 1.00
n 131 1.00
n 129 1.00
n 128 1.00
n 132 1.00
n 127 1.00
n 130 1.00
n 283 1.00
n 282 1.00
n 280 1.00
n 281 1.00
n 133 1.00
n 147 1.00
n 136 1.00
n 588 1.00
n 134 1.00
n 580 1.00
n 601 1.00
n 583 1.00
n 135 1.00
n 146 1.00
n 140 1.00
n 606 1.00
n 582 1.00
n 585 1.00
n 634 1.00
n 138 1.00
n 156 1.00
n 600 1.00
n 139 1.00
n 589 1.00
n 605 1.00
n 607 1.00
n 161 1.00
n 152 1.00
n 151 1.00
n 620 1.00
n 141 1.00
n 160 1.00
n 143 1.00
n 172 1.00
n 165 1.00
n 599 1.00
n 604 1.00
n 142 1.00
n 163 1.00
n 630 1.00
n 162 1.00
n 173 1.00
n 176 1.00
n 144 1.00
n 178 1.00
n 183 1.00
n 145 1.00
n 603 1.00
n 643 1.00
n 642 1.00
n 637 1.00
n 158 1.00
n 153 1.00
n 609 1.00
n 164 1.00
n 622 1.00
n 157 1.00
n 159 1.00
n 154 1.00
n 610 1.00
n 631 1.00
n 155 1.00
n 619 1.00
n 608 1.00
n 614 1.00
n 635 1.00
n 621 1.00
n 617 1.00
n 623 1.00
n 659 1.00
n 618 1.00
n 174 1.00
n 175 1.00
n 559 1.00
n 595 1.00
n 597 1.00
n 592 1.00
n 177 1.00
n 179 1.00
n 182 1.00
n 180 1.00
n 181 1.00
n 199 1.00
n 529 1.00
n 241 1.00
n 205 1.00
n 234 1.00
n 329 1.00
n 395 1.00
n 184 1.00
n 563 1.00
n 551 1.00
n 552 1.00
n 185 1.00
n 574 1.00
n 186 1.00
n 550 1.00
n 553 1.00
n 546 1.00
n 187 1.00
n 549 1.00
n 573 1.00
n 565 1.00
n 544 1.00
n 555 1.00
n 547 1.00
n 188 1.00
n 542 1.00
n 543 1.00
n 541 1.00
n 264 1.00
n 257 1.00
n 189 1.00
n 256 1.00
n 255 1.00
n 191 1.00
n 190 1.00
n 537 1.00
n 269 1.00
n 534 1.00
n 532 1.00
n 538 1.00
n 254 1.00
n 244 1.00
n 246 1.00
n 207 1.00
n 518 1.00
n 192 1.00
n 197 1.00
n 193 1.00
n 526 1.00
n 266 1.00
n 210 1.00
n 259 1.00
n 268 1.00
n 194 1.00
n 258 1.00
n 196 1.00
n 265 1.00
n 195 1.00
n 206 1.00
n 198 1.00
n 540 1.00
n 253 1.00
n 520 1.00
n 525 1.00
n 200 1.00
n 235 1.00
n 236 1.00
n 533 1.00
n 202 1.00
n 204 1.00
n 201 1.00
n 203 1.00
n 237 1.00
n 240 1.00
n 242 1.00
n 245 1.00
n 527 1.00
n 238 1.00
n 219 1.00
n 512 1.00
n 220 1.00
n 513 1.00
n 208 1.00
n 224 1.00
n 516 1.00
n 221 1.00
n 514 1.00
n 209 1.00
n 521 1.00
n 250 1.00
n 249 1.00
n 252 1.00
n 248 1.00
n 261 1.00
n 263 1.00
n 510 1.00
n 508 1.00
n 505 1.00
n 212 1.00
n 509 1.00
n 213 1.00
n 507 1.00
n 344 1.00
n 342 1.00
n 511 1.00
n 214 1.00
n 217 1.00
n 216 1.00
n 228 1.00
n 218 1.00
n 229 1.00
n 321 1.00
n 227 1.00
n 215 1.00
n 340 1.00
n 223 1.00
n 349 1.00
n 222 1.00
n 345 1.00
n 233 1.00
n 226 1.00
n 327 1.00
n 243 1.00
n 323 1.00
n 225 1.00
n 515 1.00
n 517 1.00
n 330 1.00
n 324 1.00
n 326 1.00
n 230 1.00
n 325 1.00
n 328 1.00
n 332 1.00
n 231 1.00
n 320 1.00
n 232 1.00
n 319 1.00
n 239 1.00
n 247 1.00
n 528 1.00
n 523 1.00
n 566 1.00
n 273 1.00
n 271 1.00
n 270 1.00
n 267 1.00
n 260 1.00
n 274 1.00
n 524 1.00
n 262 1.00
n 272 1.00
n 519 1.00
n 522 1.00
n 277 1.00
n 275 1.00
n 276 1.00
n 584 1.00
n 279 1.00
n 284 1.00
n 287 1.00
n 285 1.00
n 286 1.00
n 504 1.00
n 290 1.00
n 483 1.00
n 288 1.00
n 289 1.00
n 501 1.00
n 301 1.00
n 503 1.00
n 291 1.00
n 403 1.00
n 423 1.00
n 293 1.00
n 294 1.00
n 292 1.00
n 416 1.00
n 295 1.00
n 457 1.00
n 412 1.00
n 297 1.00
n 408 1.00
n 407 1.00
n 298 1.00
n 486 1.00
n 477 1.00
n 296 1.00
n 476 1.00
n 487 1.00
n 479 1.00
n 489 1.00
n 419 1.00
n 485 1.00
n 299 1.00
n 484 1.00
n 492 1.00
n 480 1.00
n 493 1.00
n 499 1.00
n 300 1.00
n 500 1.00
n 302 1.00
n 304 1.00
n 318 1.00
n 317 1.00
n 307 1.00
n 305 1.00
n 316 1.00
n 303 1.00
n 356 1.00
n 333 1.00
n 354 1.00
n 355 1.00
n 306 1.00
n 308 1.00
n 314 1.00
n 309 1.00
n 311 1.00
n 310 1.00
n 401 1.00
n 396 1.00
n 406 1.00
n 397 1.00
n 312 1.00
n 313 1.00
n 404 1.00
n 362 1.00
n 360 1.00
n 315 1.00
n 357 1.00
n 361 1.00
n 402 1.00
n 488 1.00
n 363 1.00
n 331 1.00
n 322 1.00
n 336 1.00
n 337 1.00
n 347 1.00
n 335 1.00
n 358 1.00
n 482 1.00
n 334 1.00
n 359 1.00
n 338 1.00
n 491 1.00
n 490 1.00
n 496 1.00
n 346 1.00
n 339 1.00
n 350 1.00
n 341 1.00
n 494 1.00
n 495 1.00
n 498 1.00
n 351 1.00
n 348 1.00
n 343 1.00
n 497 1.00
n 506 1.00
n 352 1.00
n 502 1.00
n 474 1.00
n 472 1.00
n 473 1.00
n 467 1.00
n 475 1.00
n 364 1.00
n 409 1.00
n 420 1.00
n 365 1.00
n 374 1.00
n 373 1.00
n 372 1.00
n 470 1.00
n 370 1.00
n 366 1.00
n 375 1.00
n 367 1.00
n 378 1.00
n 371 1.00
n 368 1.00
n 369 1.00
n 471 1.00
n 453 1.00
n 455 1.00
n 463 1.00
n 464 1.00
n 451 1.00
n 376 1.00
n 377 1.00
n 379 1.00
n 384 1.00
n 381 1.00
n 380 1.00
n 382 1.00
n 383 1.00
n 387 1.00
n 389 1.00
n 386 1.00
n 399 1.00
n 398 1.00
n 405 1.00
n 385 1.00
n 393 1.00
n 390 1.00
n 388 1.00
n 392 1.00
n 394 1.00
n 400 1.00
n 413 1.00
n 414 1.00
n 410 1.00
n 462 1.00
n 411 1.00
n 450 1.00
n 452 1.00
n 460 1.00
n 459 1.00
n 456 1.00
n 461 1.00
n 434 1.00
n 432 1.00
n 431 1.00
n 428 1.00
n 415 1.00
n 458 1.00
n 417 1.00
n 466 1.00
n 468 1.00
n 418 1.00
n 465 1.00
n 424 1.00
n 422 1.00
n 429 1.00
n 430 1.00
n 433 1.00
n 437 1.00
n 435 1.00
n 436 1.00
n 438 1.00
n 441 1.00
n 440 1.00
n 442 1.00
n 443 1.00
n 446 1.00
n 444 1.00
n 445 1.00
n 447 1.00
n 449 1.00
n 448 1.00
n 469 1.00
n 454 1.00
n 478 1.00
n 481 1.00
n 530 1.00
n 539 1.00
n 564 1.00
n 536 1.00
n 531 1.00
n 535 1.00
n 562 1.00
n 548 1.00
n 545 1.00
n 561 1.00
n 554 1.00
n 567 1.00
n 568 1.00
n 556 1.00
n 572 1.00
n 557 1.00
n 571 1.00
n 590 1.00
n 596 1.00
n 594 1.00
n 558 1.00
n 591 1.00
n 569 1.00
n 575 1.00
n 578 1.00
n 576 1.00
n 586 1.00
n 570 1.00
n 587 1.00
n 581 1.00
n 577 1.00
n 593 1.00
n 598 1.00
n 613 1.00
n 629 1.00
n 616 1.00
n 612 1.00
n 611 1.00
n 654 1.00
n 673 1.00
n 655 1.00
n 627 1.00
n 656 1.00
n 615 1.00
n 657 1.00
n 632 1.00
n 658 1.00
n 661 1.00
n 660 1.00
n 636 1.00
n 628 1.00
n 653 1.00
n 624 1.00
n 626 1.00
n 662 1.00
n 625 1.00
n 663 1.00
n 641 1.00
n 633 1.00
n 639 1.00
n 647 1.00
n 667 1.00
n 664 1.00
n 672 1.00
n 674 1.00
n 668 1.00
n 677 1.00
n 702 1.00
n 697 1.00
e 0 13
e 0 17
e 0 12
e 0 723
e 0 714
e 0 2
e 1 721
e 1 714
e 1 10
e 1 2
e 2 714
e 2 10
e 2 703
e 2 712
e 2 3
e 3 712
e 3 711
e 3 4
e 3 713
e 4 701
e 4 710
e 4 8
e 4 709
e 4 704
e 4 711
e 4 713
e 5 718
e 5 719
e 5 14
e 5 717
e 5 85
e 6 704
e 6 709
e 6 715
e 6 716
e 6 7
e 7 709
e 7 716
e 7 700
e 7 708
e 7 705
e 7 706
e 7 707
e 8 9
e 8 701
e 8 709
e 9 701
e 9 694
e 9 97
e 9 19
e 9 15
e 9 709
e 10 721
e 10 693
e 10 720
e 10 703
e 12 13
e 12 723
e 12 722
e 13 17
e 13 25
e 13 722
e 14 699
e 14 16
e 14 719
e 14 84
e 14 85
e 15 19
e 15 18
e 15 709
e 15 700
e 16 99
e 16 18
e 16 699
e 16 100
e 16 82
e 16 84
e 17 40
e 17 98
e 17 25
e 18 19
e 18 86
e 18 99
e 18 700
e 18 699
e 19 97
e 19 86
e 20 693
e 20 24
e 20 696
e 20 23
e 20 692
e 21 692
e 21 92
e 21 688
e 21 691
e 21 46
e 21 690
e 21 95
e 22 25
e 22 94
e 22 27
e 22 689
e 23 24
e 23 28
e 23 44
e 23 687
e 23 92
e 23 692
e 24 28
e 24 27
e 24 693
e 25 98
e 25 26
e 25 94
e 25 27
e 25 722
e 26 90
e 26 98
e 26 91
e 26 94
e 27 689
e 27 722
e 27 693
e 27 28
e 28 45
e 28 43
e 28 689
e 28 38
e 28 44
e 29 37
e 29 46
e 29 95
e 29 30
e 29 686
e 30 37
e 30 686
e 30 33
e 30 81
e 31 47
e 31 80
e 31 42
e 31 683
e 31 45
e 31 36
e 32 38
e 32 36
e 32 44
e 32 671
e 32 35
e 32 685
e 32 37
e 33 34
e 33 37
e 33 675
e 33 81
e 33 64
e 33 106
e 33 77
e 34 665
e 34 35
e 34 678
e 34 37
e 34 666
e 34 675
e 35 676
e 35 671
e 35 665
e 35 37
e 36 683
e 36 45
e 36 43
e 36 78
e 36 671
e 36 38
e 37 685
e 37 688
e 37 46
e 38 43
e 38 44
e 39 41
e 39 90
e 39 91
e 39 684
e 39 47
e 39 94
e 40 98
e 40 48
e 40 41
e 40 79
e 41 48
e 41 98
e 41 90
e 41 684
e 42 94
e 42 47
e 42 689
e 42 45
e 43 45
e 44 685
e 44 687
e 45 689
e 46 688
e 46 95
e 47 684
e 47 80
e 47 94
e 48 79
e 48 684
e 50 107
e 50 65
e 50 108
e 50 58
e 51 111
e 51 58
e 51 59
e 51 104
e 51 60
e 51 112
e 51 57
e 51 75
e 51 56
e 52 73
e 52 54
e 52 53
e 52 72
e 52 71
e 53 54
e 53 71
e 53 105
e 53 648
e 54 76
e 54 56
e 54 73
e 54 55
e 54 118
e 54 648
e 55 57
e 55 60
e 55 61
e 55 56
e 55 118
e 56 57
e 56 75
e 56 76
e 57 60
e 58 107
e 58 116
e 58 651
e 58 646
e 58 108
e 58 111
e 58 59
e 59 646
e 59 652
e 59 104
e 60 104
e 60 61
e 61 104
e 61 118
e 62 115
e 62 63
e 62 83
e 63 82
e 63 110
e 63 114
e 63 84
e 63 115
e 63 83
e 64 81
e 64 77
e 64 66
e 64 107
e 65 107
e 65 66
e 65 87
e 65 108
e 65 101
e 65 67
e 66 81
e 66 102
e 66 107
e 66 87
e 67 101
e 67 108
e 67 68
e 67 89
e 68 108
e 68 111
e 68 89
e 68 112
e 68 113
e 68 109
e 70 105
e 70 71
e 70 114
e 70 115
e 70 103
e 71 72
e 71 114
e 71 105
e 72 73
e 72 114
e 73 110
e 73 76
e 73 114
e 74 113
e 74 112
e 74 75
e 74 76
e 74 109
e 74 110
e 75 112
e 75 76
e 76 110
e 77 106
e 77 116
e 77 107
e 78 683
e 78 669
e 78 680
e 78 671
e 79 682
e 79 670
e 79 684
e 80 684
e 80 681
e 80 679
e 80 683
e 81 686
e 81 102
e 82 100
e 82 109
e 82 110
e 82 84
e 83 85
e 83 84
e 83 717
e 84 85
e 85 717
e 86 97
e 86 87
e 86 101
e 86 99
e 87 102
e 87 88
e 87 97
e 87 101
e 88 96
e 88 102
e 88 97
e 89 101
e 89 99
e 89 100
e 89 109
e 90 98
e 90 91
e 91 94
e 92 687
e 92 692
e 92 688
e 93 95
e 93 690
e 93 695
e 93 686
e 93 698
e 93 694
e 93 96
e 94 689
e 95 690
e 95 686
e 96 686
e 96 102
e 96 694
e 96 97
e 97 694
e 99 101
e 99 100
e 100 109
e 102 686
e 103 115
e 103 105
e 103 117
e 104 652
e 104 118
e 105 648
e 105 117
e 106 675
e 106 645
e 106 116
e 107 116
e 108 111
e 109 113
e 109 110
e 110 114
e 111 112
e 112 113
e 114 115
e 116 645
e 116 644
e 116 651
e 117 648
e 118 122
e 118 650
e 118 652
e 118 168
e 118 648
e 119 120
e 119 638
e 119 640
e 119 650
e 120 149
e 120 638
e 120 150
e 120 122
e 120 650
e 122 148
e 122 150
e 122 167
e 122 650
e 122 123
e 122 168
e 123 167
e 123 166
e 123 124
e 123 169
e 123 168
e 124 166
e 124 169
e 124 125
e 125 171
e 125 166
e 125 169
e 125 602
e 125 126
e 125 131
e 126 602
e 126 129
e 126 131
e 126 128
e 126 132
e 126 127
e 126 130
e 127 132
e 127 130
e 127 170
e 128 129
e 128 283
e 128 282
e 128 280
e 128 130
e 129 283
e 129 602
e 130 280
e 130 281
e 131 169
e 131 132
e 131 170
e 132 170
e 133 147
e 133 136
e 133 588
e 133 134
e 133 580
e 133 601
e 133 583
e 134 147
e 134 135
e 134 601
e 134 146
e 135 147
e 135 149
e 135 146
e 135 150
e 136 140
e 136 606
e 136 582
e 136 585
e 136 588
e 136 634
e 136 147
e 138 156
e 138 600
e 138 139
e 138 589
e 138 605
e 138 607
e 139 156
e 139 161
e 139 152
e 139 607
e 140 607
e 140 151
e 140 606
e 140 620
e 140 634
e 141 160
e 141 143
e 141 172
e 141 165
e 141 599
e 141 604
e 142 163
e 142 630
e 142 162
e 142 173
e 143 176
e 143 144
e 143 162
e 143 172
e 143 160
e 144 178
e 144 176
e 144 183
e 144 172
e 145 603
e 145 148
e 145 167
e 145 166
e 145 171
e 146 601
e 146 150
e 146 148
e 146 603
e 147 634
e 147 643
e 147 642
e 147 149
e 148 150
e 148 603
e 148 167
e 149 642
e 149 638
e 149 150
e 151 637
e 151 152
e 151 607
e 151 620
e 152 161
e 152 158
e 152 607
e 152 637
e 153 609
e 153 160
e 153 164
e 153 622
e 153 157
e 153 159
e 154 163
e 154 630
e 154 610
e 154 631
e 154 155
e 155 631
e 155 163
e 155 162
e 155 619
e 155 160
e 155 609
e 156 157
e 156 608
e 156 600
e 156 614
e 156 635
e 156 161
e 157 622
e 157 621
e 157 159
e 157 617
e 157 608
e 157 614
e 158 623
e 158 635
e 158 161
e 158 659
e 158 618
e 158 637
e 159 164
e 159 608
e 159 604
e 160 162
e 160 609
e 160 165
e 160 164
e 161 635
e 162 163
e 162 173
e 162 176
e 163 630
e 164 165
e 164 604
e 165 604
e 166 167
e 166 171
e 168 169
e 168 648
e 169 648
e 169 170
e 170 648
e 171 603
e 171 602
e 172 183
e 172 174
e 172 599
e 173 175
e 173 176
e 174 183
e 174 559
e 174 595
e 174 599
e 174 597
e 174 592
e 175 176
e 175 178
e 175 177
e 176 178
e 177 178
e 177 179
e 177 182
e 178 179
e 178 183
e 179 182
e 179 180
e 179 181
e 179 183
e 180 182
e 180 199
e 180 181
e 180 529
e 181 529
e 181 559
e 181 183
e 182 241
e 182 205
e 182 234
e 182 199
e 182 329
e 182 395
e 183 559
e 184 563
e 184 551
e 184 552
e 184 185
e 184 574
e 185 552
e 185 186
e 185 550
e 185 574
e 186 552
e 186 553
e 186 550
e 186 546
e 187 549
e 187 573
e 187 565
e 187 544
e 187 555
e 187 547
e 188 542
e 188 547
e 188 543
e 188 541
e 188 264
e 188 257
e 189 544
e 189 256
e 189 255
e 189 191
e 189 542
e 189 541
e 190 537
e 190 269
e 190 534
e 190 532
e 190 538
e 190 254
e 190 244
e 191 246
e 191 255
e 191 207
e 191 541
e 191 518
e 192 197
e 192 193
e 192 526
e 192 266
e 192 210
e 192 259
e 193 268
e 193 194
e 193 258
e 193 197
e 193 266
e 194 196
e 194 265
e 194 268
e 194 197
e 195 206
e 195 198
e 195 540
e 195 253
e 195 256
e 196 265
e 196 520
e 196 525
e 196 197
e 197 525
e 197 526
e 198 200
e 198 235
e 198 540
e 198 206
e 199 205
e 199 236
e 199 529
e 199 533
e 199 202
e 200 204
e 200 235
e 200 206
e 201 203
e 201 202
e 201 533
e 201 537
e 201 269
e 201 254
e 202 533
e 202 236
e 202 237
e 202 203
e 203 237
e 203 240
e 203 242
e 203 254
e 204 245
e 204 244
e 204 538
e 204 527
e 204 235
e 204 206
e 205 241
e 205 238
e 205 236
e 206 245
e 206 219
e 206 512
e 206 253
e 207 246
e 207 220
e 207 518
e 207 513
e 208 224
e 208 516
e 208 221
e 208 520
e 208 514
e 209 521
e 209 210
e 209 250
e 209 249
e 209 252
e 209 248
e 209 261
e 210 526
e 210 250
e 210 259
e 210 263
e 210 521
e 212 509
e 212 213
e 212 507
e 212 252
e 212 508
e 212 248
e 213 344
e 213 342
e 213 509
e 213 511
e 213 252
e 214 217
e 214 216
e 214 228
e 214 218
e 214 229
e 214 321
e 214 227
e 215 340
e 215 513
e 215 223
e 215 349
e 215 222
e 215 345
e 216 233
e 216 226
e 216 327
e 216 243
e 216 217
e 216 228
e 217 243
e 217 218
e 218 243
e 218 244
e 218 245
e 218 227
e 219 245
e 219 227
e 219 512
e 219 323
e 220 246
e 220 253
e 220 512
e 220 513
e 221 222
e 221 224
e 221 342
e 221 514
e 221 511
e 222 223
e 222 224
e 222 345
e 222 342
e 223 225
e 223 518
e 223 513
e 223 224
e 224 225
e 224 515
e 224 516
e 225 518
e 225 517
e 225 515
e 226 233
e 226 240
e 226 242
e 226 243
e 227 321
e 227 330
e 227 245
e 227 324
e 227 323
e 228 327
e 228 326
e 228 230
e 228 229
e 229 230
e 229 321
e 230 325
e 230 326
e 230 321
e 230 328
e 230 332
e 231 329
e 231 320
e 231 232
e 231 319
e 231 233
e 232 329
e 232 234
e 232 239
e 232 233
e 233 239
e 233 319
e 233 240
e 233 327
e 234 241
e 234 329
e 234 238
e 234 239
e 235 527
e 235 540
e 236 238
e 236 237
e 237 238
e 237 239
e 237 240
e 238 241
e 238 239
e 239 240
e 240 242
e 242 243
e 242 254
e 243 254
e 243 244
e 244 254
e 244 245
e 244 538
e 246 256
e 246 253
e 246 255
e 247 511
e 247 514
e 247 249
e 247 250
e 247 526
e 248 252
e 248 510
e 248 508
e 249 511
e 249 250
e 249 252
e 250 526
e 252 511
e 253 512
e 253 256
e 254 269
e 255 256
e 256 540
e 256 528
e 256 544
e 257 543
e 257 264
e 257 523
e 257 566
e 257 268
e 257 258
e 257 273
e 258 268
e 258 273
e 258 271
e 258 270
e 258 267
e 258 266
e 259 263
e 259 260
e 259 266
e 259 274
e 260 263
e 260 524
e 260 274
e 261 524
e 261 262
e 261 521
e 261 272
e 262 524
e 262 263
e 262 521
e 263 521
e 263 524
e 264 541
e 264 517
e 264 519
e 264 523
e 264 522
e 265 523
e 265 522
e 265 268
e 265 520
e 266 267
e 266 274
e 267 270
e 267 274
e 268 523
e 269 537
e 270 271
e 270 274
e 271 273
e 271 277
e 271 275
e 271 274
e 272 275
e 272 274
e 272 276
e 272 524
e 273 584
e 273 566
e 273 277
e 274 275
e 274 524
e 275 277
e 275 279
e 275 280
e 275 281
e 275 276
e 276 281
e 277 584
e 277 282
e 277 279
e 279 282
e 279 280
e 280 282
e 280 281
e 282 283
e 282 584
e 283 584
e 283 602
e 284 287
e 284 285
e 284 286
e 284 504
e 285 290
e 285 483
e 285 288
e 285 287
e 285 286
e 286 290
e 286 289
e 286 504
e 286 505
e 287 501
e 287 288
e 287 504
e 288 483
e 288 301
e 288 503
e 288 501
e 289 290
e 289 291
e 289 403
e 289 423
e 289 505
e 290 483
e 290 291
e 291 293
e 291 294
e 291 483
e 291 403
e 292 416
e 292 295
e 292 457
e 292 412
e 292 297
e 292 408
e 292 294
e 292 407
e 292 293
e 293 294
e 293 407
e 293 403
e 294 297
e 294 298
e 294 483
e 295 416
e 295 486
e 295 477
e 295 297
e 296 476
e 296 487
e 296 479
e 296 489
e 296 419
e 296 485
e 297 477
e 297 299
e 297 484
e 297 298
e 298 484
e 298 483
e 299 492
e 299 480
e 299 477
e 299 493
e 299 499
e 299 484
e 299 300
e 300 484
e 300 499
e 300 500
e 300 301
e 300 483
e 301 500
e 301 483
e 301 503
e 302 304
e 302 318
e 302 317
e 302 319
e 302 307
e 302 305
e 302 316
e 302 327
e 303 356
e 303 316
e 303 333
e 303 354
e 303 355
e 304 318
e 304 306
e 304 308
e 304 314
e 304 307
e 305 307
e 305 316
e 305 309
e 305 311
e 305 310
e 305 356
e 306 308
e 306 395
e 306 318
e 307 314
e 307 309
e 308 395
e 308 401
e 308 314
e 309 396
e 309 314
e 309 406
e 309 397
e 309 311
e 310 311
e 310 312
e 310 356
e 310 313
e 311 397
e 311 312
e 312 397
e 312 313
e 312 404
e 312 362
e 313 356
e 313 355
e 313 362
e 313 360
e 314 401
e 314 396
e 315 357
e 315 361
e 315 402
e 315 488
e 315 363
e 316 327
e 316 333
e 316 356
e 317 318
e 317 395
e 317 320
e 317 319
e 318 395
e 319 320
e 319 327
e 320 329
e 320 395
e 321 328
e 321 331
e 321 330
e 322 324
e 322 331
e 322 336
e 322 323
e 323 324
e 323 336
e 323 337
e 323 347
e 323 512
e 324 331
e 324 330
e 325 333
e 325 326
e 325 354
e 325 332
e 326 333
e 326 327
e 327 333
e 328 332
e 328 331
e 328 335
e 329 395
e 330 331
e 331 335
e 331 336
e 332 354
e 332 358
e 332 482
e 332 335
e 333 354
e 334 482
e 334 335
e 334 336
e 334 359
e 334 337
e 334 338
e 334 491
e 334 490
e 335 336
e 335 482
e 336 337
e 337 347
e 337 338
e 337 496
e 337 346
e 338 491
e 338 496
e 339 350
e 339 341
e 339 494
e 339 495
e 339 498
e 340 351
e 340 348
e 340 494
e 340 341
e 340 513
e 340 349
e 341 494
e 341 349
e 341 350
e 342 343
e 342 345
e 342 344
e 342 511
e 343 498
e 343 345
e 343 493
e 343 499
e 343 497
e 343 344
e 344 497
e 344 506
e 344 509
e 345 349
e 345 350
e 345 498
e 346 347
e 346 496
e 346 512
e 346 348
e 346 351
e 346 513
e 347 512
e 348 496
e 348 351
e 348 491
e 348 494
e 349 350
e 350 498
e 351 513
e 352 503
e 352 506
e 352 507
e 352 501
e 352 502
e 354 355
e 354 358
e 355 356
e 355 360
e 355 358
e 357 360
e 357 358
e 357 361
e 357 482
e 357 359
e 357 488
e 358 360
e 358 482
e 359 482
e 359 488
e 359 487
e 359 490
e 360 362
e 360 361
e 361 362
e 361 474
e 361 402
e 362 404
e 362 472
e 362 473
e 362 474
e 363 488
e 363 402
e 363 467
e 363 475
e 364 407
e 364 409
e 364 403
e 364 420
e 364 423
e 365 374
e 365 373
e 365 372
e 365 470
e 365 370
e 366 375
e 366 373
e 366 372
e 366 367
e 366 378
e 367 372
e 367 371
e 367 378
e 368 370
e 368 369
e 368 471
e 368 453
e 368 455
e 368 463
e 368 464
e 369 371
e 369 370
e 369 464
e 369 451
e 370 372
e 370 371
e 370 470
e 370 471
e 371 372
e 371 451
e 372 373
e 373 374
e 373 375
e 374 376
e 374 375
e 374 470
e 375 378
e 375 376
e 376 378
e 376 377
e 376 470
e 377 378
e 377 379
e 377 384
e 377 470
e 378 381
e 378 379
e 379 381
e 379 380
e 379 384
e 380 382
e 380 381
e 380 384
e 381 382
e 381 383
e 382 384
e 382 383
e 383 384
e 383 387
e 383 389
e 384 386
e 384 399
e 384 387
e 384 398
e 384 405
e 384 404
e 384 470
e 385 393
e 385 390
e 385 389
e 385 388
e 385 386
e 386 388
e 386 387
e 386 393
e 386 399
e 387 388
e 387 389
e 388 389
e 389 390
e 390 392
e 390 393
e 392 395
e 392 394
e 392 393
e 393 394
e 393 399
e 394 401
e 394 395
e 394 396
e 394 400
e 394 399
e 395 401
e 396 401
e 396 400
e 396 406
e 397 406
e 397 398
e 397 405
e 397 404
e 398 399
e 398 406
e 398 405
e 399 400
e 399 406
e 400 406
e 402 473
e 402 474
e 402 467
e 403 407
e 403 423
e 404 405
e 404 470
e 404 472
e 407 408
e 407 409
e 408 412
e 408 413
e 408 409
e 409 413
e 409 414
e 409 420
e 410 462
e 410 411
e 410 451
e 410 450
e 410 452
e 410 457
e 410 460
e 411 459
e 411 456
e 411 462
e 411 457
e 412 460
e 412 457
e 412 413
e 413 460
e 413 461
e 413 414
e 414 461
e 414 434
e 414 432
e 414 431
e 414 428
e 414 420
e 415 458
e 415 419
e 415 456
e 415 485
e 415 416
e 415 457
e 416 485
e 416 486
e 416 457
e 417 466
e 417 468
e 417 475
e 417 476
e 417 418
e 418 465
e 418 466
e 418 476
e 418 458
e 418 419
e 419 476
e 419 458
e 419 485
e 420 428
e 420 424
e 420 422
e 420 423
e 422 423
e 422 424
e 422 505
e 423 505
e 424 428
e 428 430
e 428 429
e 428 431
e 429 430
e 429 433
e 429 437
e 430 433
e 430 431
e 431 433
e 431 432
e 432 433
e 432 434
e 433 434
e 433 435
e 433 437
e 434 435
e 434 436
e 434 461
e 435 437
e 435 436
e 436 437
e 436 438
e 436 461
e 437 438
e 437 441
e 438 441
e 438 440
e 438 461
e 440 441
e 440 442
e 440 461
e 441 442
e 441 443
e 441 446
e 442 444
e 442 443
e 442 460
e 442 461
e 443 446
e 443 444
e 444 446
e 444 445
e 444 452
e 444 460
e 445 446
e 445 447
e 445 452
e 446 449
e 446 447
e 447 449
e 447 448
e 447 452
e 448 450
e 448 449
e 448 452
e 449 450
e 449 451
e 450 451
e 450 452
e 451 464
e 451 462
e 452 460
e 453 471
e 453 469
e 453 468
e 453 455
e 454 466
e 454 455
e 454 465
e 454 463
e 455 468
e 455 466
e 455 463
e 456 458
e 456 459
e 456 457
e 457 460
e 458 465
e 458 463
e 458 464
e 458 459
e 459 464
e 459 462
e 460 461
e 462 464
e 463 465
e 463 464
e 465 466
e 466 468
e 467 473
e 467 469
e 467 468
e 467 475
e 468 469
e 468 475
e 469 473
e 469 471
e 470 472
e 470 471
e 471 472
e 471 473
e 472 473
e 473 474
e 475 488
e 475 487
e 475 476
e 476 487
e 477 485
e 477 478
e 477 486
e 477 480
e 478 494
e 478 489
e 478 485
e 478 481
e 478 480
e 479 490
e 479 487
e 479 489
e 480 481
e 480 492
e 481 494
e 481 495
e 481 492
e 483 484
e 485 489
e 485 486
e 487 488
e 487 490
e 489 490
e 489 494
e 490 491
e 490 494
e 491 496
e 491 494
e 492 495
e 492 493
e 493 495
e 493 498
e 493 499
e 494 495
e 495 498
e 497 499
e 497 506
e 497 503
e 499 500
e 499 503
e 500 503
e 501 503
e 501 502
e 501 504
e 502 507
e 502 504
e 502 505
e 503 506
e 504 505
e 505 507
e 505 508
e 506 509
e 506 507
e 507 509
e 507 508
e 508 510
e 511 514
e 512 513
e 513 518
e 514 520
e 514 525
e 514 526
e 515 517
e 515 516
e 516 517
e 516 519
e 516 520
e 517 518
e 517 541
e 517 519
e 518 541
e 519 522
e 519 520
e 520 522
e 520 525
e 522 523
e 525 526
e 527 530
e 527 538
e 527 539
e 527 540
e 528 546
e 528 539
e 528 540
e 528 550
e 528 565
e 528 544
e 529 533
e 529 559
e 529 564
e 530 538
e 530 536
e 530 546
e 530 539
e 531 535
e 531 532
e 531 538
e 531 536
e 532 534
e 532 535
e 532 538
e 533 564
e 533 537
e 534 537
e 534 535
e 534 562
e 535 562
e 535 548
e 535 536
e 536 548
e 536 538
e 536 545
e 536 546
e 537 564
e 537 561
e 537 562
e 539 540
e 539 546
e 541 542
e 542 544
e 542 547
e 543 554
e 543 555
e 543 547
e 543 567
e 543 566
e 544 565
e 544 547
e 545 548
e 545 551
e 545 563
e 545 546
e 546 563
e 546 553
e 546 550
e 547 555
e 548 562
e 548 551
e 549 568
e 549 573
e 549 556
e 549 555
e 550 574
e 550 572
e 550 565
e 551 562
e 551 561
e 551 557
e 551 563
e 551 574
e 552 563
e 552 553
e 553 563
e 554 556
e 554 555
e 554 571
e 554 567
e 555 556
e 556 568
e 556 585
e 556 588
e 556 580
e 556 571
e 557 595
e 557 590
e 557 596
e 557 561
e 557 594
e 557 558
e 557 574
e 558 591
e 558 594
e 558 574
e 558 569
e 559 564
e 559 595
e 561 595
e 561 564
e 561 562
e 564 595
e 565 572
e 565 573
e 566 575
e 566 567
e 566 578
e 566 576
e 566 584
e 567 571
e 567 575
e 568 586
e 568 570
e 568 573
e 568 585
e 569 591
e 569 587
e 569 574
e 569 572
e 569 582
e 569 570
e 569 581
e 570 572
e 570 581
e 570 573
e 570 586
e 571 580
e 571 575
e 572 574
e 572 573
e 575 580
e 575 578
e 576 577
e 576 578
e 576 584
e 577 578
e 577 583
e 577 603
e 577 584
e 578 580
e 578 583
e 580 588
e 580 583
e 581 582
e 581 586
e 581 585
e 582 605
e 582 587
e 582 606
e 582 585
e 583 601
e 583 603
e 584 603
e 584 602
e 585 586
e 585 588
e 587 589
e 587 593
e 587 605
e 587 591
e 589 600
e 589 598
e 589 593
e 589 605
e 590 599
e 590 597
e 590 592
e 590 595
e 590 604
e 590 598
e 590 596
e 591 594
e 591 593
e 592 597
e 592 595
e 593 598
e 593 594
e 594 598
e 594 596
e 596 598
e 597 599
e 598 604
e 598 600
e 599 604
e 600 604
e 600 608
e 601 603
e 602 603
e 604 608
e 605 607
e 605 606
e 606 607
e 609 613
e 609 619
e 609 629
e 609 616
e 609 622
e 610 612
e 610 630
e 610 611
e 610 631
e 611 654
e 611 612
e 611 673
e 611 631
e 611 655
e 611 627
e 611 613
e 612 682
e 612 630
e 612 654
e 613 631
e 613 627
e 613 619
e 613 629
e 614 617
e 614 656
e 614 635
e 614 615
e 615 656
e 615 657
e 615 635
e 615 632
e 616 658
e 616 629
e 616 661
e 616 622
e 617 660
e 617 621
e 617 656
e 618 659
e 618 637
e 618 636
e 618 628
e 619 631
e 620 637
e 620 636
e 620 634
e 621 661
e 621 622
e 621 653
e 621 660
e 622 661
e 623 624
e 623 632
e 623 635
e 623 659
e 624 632
e 624 657
e 624 626
e 624 662
e 624 659
e 625 666
e 625 663
e 625 628
e 625 675
e 625 641
e 625 645
e 626 657
e 626 676
e 626 662
e 626 663
e 627 655
e 627 658
e 627 629
e 628 659
e 628 662
e 628 663
e 628 636
e 628 633
e 628 641
e 629 658
e 630 682
e 632 657
e 632 635
e 633 636
e 633 634
e 633 641
e 633 643
e 634 636
e 634 643
e 636 637
e 638 642
e 638 639
e 638 640
e 638 647
e 639 651
e 639 642
e 639 646
e 639 647
e 640 647
e 640 650
e 641 645
e 641 643
e 641 644
e 642 644
e 642 643
e 642 651
e 643 644
e 644 645
e 644 651
e 645 675
e 646 651
e 646 647
e 646 652
e 647 652
e 647 650
e 650 652
e 653 667
e 653 661
e 653 679
e 653 669
e 653 664
e 653 660
e 654 682
e 654 673
e 655 673
e 655 672
e 655 674
e 655 658
e 655 661
e 656 660
e 656 664
e 656 680
e 656 668
e 656 657
e 657 668
e 657 676
e 658 661
e 659 662
e 660 664
e 661 674
e 661 677
e 661 667
e 662 663
e 663 676
e 663 665
e 663 678
e 663 666
e 664 669
e 664 680
e 665 676
e 665 678
e 666 678
e 666 675
e 667 681
e 667 677
e 667 679
e 668 671
e 668 680
e 668 676
e 669 683
e 669 679
e 669 680
e 670 682
e 670 672
e 670 681
e 670 684
e 671 680
e 671 676
e 672 673
e 672 682
e 672 681
e 672 674
e 672 677
e 673 682
e 674 677
e 677 681
e 679 681
e 679 683
e 681 684
e 685 687
e 685 688
e 687 688
e 690 691
e 690 695
e 691 692
e 691 695
e 692 696
e 692 720
e 692 703
e 692 702
e 692 697
e 692 695
e 693 721
e 693 722
e 693 720
e 693 696
e 694 698
e 694 701
e 695 697
e 695 698
e 696 720
e 697 702
e 697 711
e 697 698
e 698 711
e 698 710
e 698 701
e 699 708
e 699 700
e 699 719
e 700 709
e 700 708
e 701 710
e 702 712
e 702 703
e 702 711
e 703 720
e 703 712
e 704 709
e 704 715
e 704 705
e 704 713
e 705 715
e 705 713
e 705 716
e 705 706
e 706 707
e 706 713
e 706 717
e 707 708
e 707 718
e 707 717
e 708 718
e 708 719
e 710 711
e 711 712
e 713 717
e 714 722
e 714 723
e 714 721
e 715 716
e 717 718
e 718 719
e 721 722
e 722 723
e 62 103
e 117 170
e 130 276
e 209 510
e 510 505
e 389 392
e 424 429
